(set-info :status sat)
(declare-const symbol_155 (_ BitVec 32))
(declare-const symbol_163 (_ BitVec 32))
(declare-const symbol_35 (_ BitVec 32))
(declare-const symbol_78 (_ BitVec 32))
(declare-const symbol_175 (_ BitVec 32))
(declare-const symbol_134 (_ BitVec 32))
(declare-const symbol_112 (_ BitVec 32))
(declare-const symbol_42 (_ BitVec 32))
(declare-const symbol_118 (_ BitVec 32))
(declare-const symbol_110 (_ BitVec 32))
(declare-const symbol_91 (_ BitVec 32))
(declare-const symbol_153 (_ BitVec 32))
(declare-const symbol_149 (_ BitVec 32))
(declare-const symbol_58 (_ BitVec 32))
(declare-const symbol_17 (_ BitVec 32))
(declare-const symbol_33 (_ BitVec 32))
(declare-const symbol_54 (_ BitVec 32))
(declare-const symbol_164 (_ BitVec 32))
(declare-const symbol_132 (_ BitVec 32))
(declare-const symbol_106 (_ BitVec 32))
(declare-const symbol_130 (_ BitVec 32))
(declare-const symbol_137 (_ BitVec 32))
(declare-const symbol_157 (_ BitVec 32))
(declare-const symbol_141 (_ BitVec 32))
(declare-const symbol_168 (_ BitVec 32))
(declare-const symbol_116 (_ BitVec 32))
(declare-const symbol_102 (_ BitVec 32))
(declare-const symbol_172 (_ BitVec 32))
(declare-const symbol_143 (_ BitVec 32))
(declare-const symbol_128 (_ BitVec 32))
(declare-const symbol_60 (_ BitVec 32))
(declare-const symbol_10 (_ BitVec 32))
(declare-const symbol_84 (_ BitVec 32))
(declare-const symbol_26 (_ BitVec 32))
(declare-const symbol_29 (_ BitVec 32))
(declare-const symbol_0 (_ BitVec 32))
(declare-const symbol_139 (_ BitVec 32))
(declare-const symbol_104 (_ BitVec 32))
(declare-const symbol_82 (_ BitVec 32))
(declare-const symbol_9 (_ BitVec 32))
(declare-const symbol_166 (_ BitVec 32))
(declare-const symbol_44 (_ BitVec 32))
(declare-const symbol_161 (_ BitVec 32))
(declare-const symbol_96 (_ BitVec 32))
(declare-const symbol_64 (_ BitVec 32))
(declare-const symbol_108 (_ BitVec 32))
(declare-const symbol_52 (_ BitVec 32))
(declare-const symbol_16 (_ BitVec 32))
(declare-const symbol_3 (_ BitVec 32))
(declare-const symbol_123 (_ BitVec 32))
(declare-const symbol_95 (_ BitVec 32))
(declare-const symbol_14 (_ BitVec 32))
(declare-const symbol_126 (_ BitVec 32))
(declare-const symbol_46 (_ BitVec 32))
(declare-const symbol_24 (_ BitVec 32))
(declare-const symbol_100 (_ BitVec 32))
(declare-const symbol_1 (_ BitVec 32))
(declare-const symbol_74 (_ BitVec 32))
(declare-const symbol_22 (_ BitVec 32))
(declare-const symbol_72 (_ BitVec 32))
(declare-const symbol_67 (_ BitVec 32))
(declare-const symbol_41 (_ BitVec 32))
(declare-const symbol_62 (_ BitVec 32))
(declare-const symbol_122 (_ BitVec 32))
(declare-const symbol_80 (_ BitVec 32))
(declare-const symbol_50 (_ BitVec 32))
(declare-const symbol_170 (_ BitVec 32))
(declare-const symbol_66 (_ BitVec 32))
(declare-const symbol_136 (_ BitVec 32))
(declare-const symbol_37 (_ BitVec 32))
(declare-const symbol_120 (_ BitVec 32))
(declare-const symbol_88 (_ BitVec 32))
(declare-const symbol_93 (_ BitVec 32))
(declare-const symbol_86 (_ BitVec 32))
(declare-const symbol_151 (_ BitVec 32))
(declare-const symbol_98 (_ BitVec 32))
(declare-const symbol_31 (_ BitVec 32))
(declare-const symbol_20 (_ BitVec 32))
(declare-const symbol_7 (_ BitVec 32))
(declare-const symbol_56 (_ BitVec 32))
(declare-const symbol_39 (_ BitVec 32))
(declare-const symbol_146 (_ BitVec 32))
(declare-const symbol_159 (_ BitVec 32))
(declare-const symbol_148 (_ BitVec 32))
(declare-const symbol_69 (_ BitVec 32))
(declare-const symbol_12 (_ BitVec 32))
(declare-const symbol_114 (_ BitVec 32))
(declare-const symbol_76 (_ BitVec 32))
(declare-const symbol_5 (_ BitVec 32))
(declare-const symbol_48 (_ BitVec 32))
(assert (not (= symbol_175 (_ bv5 32))))
(assert (not (not (= symbol_175 (_ bv4 32)))))
(assert (not (not (= symbol_172 (_ bv4 32)))))
(assert (not (not (= symbol_170 (_ bv4 32)))))
(assert (not (not (= symbol_168 (_ bv4 32)))))
(assert (not (not (= symbol_166 (_ bv4 32)))))
(assert (not (not (= symbol_164 (_ bv4 32)))))
(assert (not (not (= symbol_163 (_ bv4 32)))))
(assert (not (not (= symbol_161 (_ bv4 32)))))
(assert (not (not (= symbol_159 (_ bv4 32)))))
(assert (not (not (= symbol_157 (_ bv4 32)))))
(assert (not (not (= symbol_155 (_ bv4 32)))))
(assert (not (not (= symbol_153 (_ bv4 32)))))
(assert (not (not (= symbol_151 (_ bv4 32)))))
(assert (not (not (= symbol_149 (_ bv4 32)))))
(assert (not (not (= symbol_148 (_ bv4 32)))))
(assert (not (not (= symbol_146 (_ bv4 32)))))
(assert (not (not (= symbol_143 (_ bv4 32)))))
(assert (not (not (= symbol_141 (_ bv4 32)))))
(assert (not (not (= symbol_139 (_ bv4 32)))))
(assert (not (not (= symbol_137 (_ bv4 32)))))
(assert (not (not (= symbol_136 (_ bv4 32)))))
(assert (not (not (= symbol_134 (_ bv4 32)))))
(assert (not (not (= symbol_132 (_ bv4 32)))))
(assert (not (not (= symbol_130 (_ bv4 32)))))
(assert (not (not (= symbol_128 (_ bv4 32)))))
(assert (not (not (= symbol_126 (_ bv4 32)))))
(assert (not (not (= symbol_123 (_ bv4 32)))))
(assert (not (not (= symbol_122 (_ bv4 32)))))
(assert (not (not (= symbol_120 (_ bv4 32)))))
(assert (not (not (= symbol_118 (_ bv4 32)))))
(assert (not (not (= symbol_116 (_ bv4 32)))))
(assert (not (not (= symbol_114 (_ bv4 32)))))
(assert (not (not (= symbol_112 (_ bv4 32)))))
(assert (not (not (= symbol_110 (_ bv4 32)))))
(assert (not (not (= symbol_108 (_ bv4 32)))))
(assert (not (not (= symbol_106 (_ bv4 32)))))
(assert (not (not (= symbol_104 (_ bv4 32)))))
(assert (not (not (= symbol_102 (_ bv4 32)))))
(assert (not (not (= symbol_100 (_ bv4 32)))))
(assert (not (not (= symbol_98 (_ bv4 32)))))
(assert (not (not (= symbol_96 (_ bv4 32)))))
(assert (not (not (= symbol_95 (_ bv4 32)))))
(assert (not (not (= symbol_93 (_ bv4 32)))))
(assert (not (not (= symbol_91 (_ bv4 32)))))
(assert (not (not (= symbol_88 (_ bv4 32)))))
(assert (not (not (= symbol_86 (_ bv4 32)))))
(assert (not (not (= symbol_84 (_ bv4 32)))))
(assert (not (not (= symbol_82 (_ bv4 32)))))
(assert (not (not (= symbol_80 (_ bv4 32)))))
(assert (not (not (= symbol_78 (_ bv4 32)))))
(assert (not (not (= symbol_76 (_ bv4 32)))))
(assert (not (not (= symbol_74 (_ bv4 32)))))
(assert (not (not (= symbol_72 (_ bv4 32)))))
(assert (not (not (= symbol_69 (_ bv4 32)))))
(assert (not (not (= symbol_67 (_ bv4 32)))))
(assert (not (not (= symbol_66 (_ bv4 32)))))
(assert (not (not (= symbol_64 (_ bv4 32)))))
(assert (not (not (= symbol_62 (_ bv4 32)))))
(assert (not (not (= symbol_60 (_ bv4 32)))))
(assert (not (not (= symbol_58 (_ bv4 32)))))
(assert (not (not (= symbol_56 (_ bv4 32)))))
(assert (not (not (= symbol_54 (_ bv4 32)))))
(assert (not (not (= symbol_52 (_ bv4 32)))))
(assert (not (not (= symbol_50 (_ bv4 32)))))
(assert (not (not (= symbol_48 (_ bv4 32)))))
(assert (not (not (= symbol_46 (_ bv4 32)))))
(assert (not (not (= symbol_44 (_ bv4 32)))))
(assert (not (not (= symbol_42 (_ bv4 32)))))
(assert (not (not (= symbol_41 (_ bv4 32)))))
(assert (not (not (= symbol_39 (_ bv4 32)))))
(assert (not (not (= symbol_37 (_ bv4 32)))))
(assert (not (not (= symbol_35 (_ bv4 32)))))
(assert (not (not (= symbol_33 (_ bv4 32)))))
(assert (not (not (= symbol_31 (_ bv4 32)))))
(assert (not (not (= symbol_29 (_ bv4 32)))))
(assert (not (not (= symbol_26 (_ bv4 32)))))
(assert (not (not (= symbol_24 (_ bv4 32)))))
(assert (not (not (= symbol_22 (_ bv4 32)))))
(assert (not (not (= symbol_20 (_ bv4 32)))))
(assert (not (not (= symbol_17 (_ bv4 32)))))
(assert (not (not (= symbol_16 (_ bv4 32)))))
(assert (not (not (= symbol_14 (_ bv4 32)))))
(assert (not (not (= symbol_12 (_ bv4 32)))))
(assert (not (not (= symbol_10 (_ bv4 32)))))
(assert (not (not (= symbol_9 (_ bv4 32)))))
(assert (not (not (= symbol_7 (_ bv4 32)))))
(assert (not (not (= symbol_5 (_ bv4 32)))))
(assert (not (not (= symbol_3 (_ bv4 32)))))
(assert (not (not (= symbol_1 (_ bv4 32)))))
(assert (not (not (= symbol_0 (_ bv4 32)))))
(check-sat)